HeuristicsProject/solutions/example.sol
z =     248.00;
Covered crossing-day pairs: 161 / 161
Assignments (modelId, crossingId, pattern):
  Model 6 -> Crossing 8, Pattern: (1, 1, 1, 0, 1, 1, 0)
  Model 6 -> Crossing 15, Pattern: (0, 0, 1, 1, 0, 1, 1)
  Model 6 -> Crossing 9, Pattern: (1, 1, 0, 1, 1, 0, 1)
  Model 6 -> Crossing 21, Pattern: (1, 1, 0, 0, 0, 0, 0)
  Model 6 -> Crossing 20, Pattern: (0, 0, 1, 1, 0, 1, 1)
  Model 6 -> Crossing 6, Pattern: (0, 0, 0, 1, 1, 0, 0)
  Model 6 -> Crossing 19, Pattern: (0, 0, 0, 0, 0, 1, 1)
  Model 6 -> Crossing 17, Pattern: (0, 0, 1, 1, 1, 0, 0)
